p cnf 332 2432
1 -137 0
1 -138 0
137 -137 0
138 -138 0
18 -145 0
18 -146 0
145 -145 0
146 -146 0
35 -153 0
35 -154 0
153 -153 0
154 -154 0
52 -161 0
52 -162 0
161 -161 0
162 -162 0
69 -169 0
69 -170 0
169 -169 0
170 -170 0
86 -177 0
86 -178 0
177 -177 0
178 -178 0
103 -185 0
103 -186 0
185 -185 0
186 -186 0
120 -193 0
120 -194 0
193 -193 0
194 -194 0
2 -137 0
2 -138 0
137 -137 0
138 -138 0
19 -145 0
19 -146 0
145 -145 0
146 -146 0
36 -153 0
36 -154 0
153 -153 0
154 -154 0
53 -161 0
53 -162 0
161 -161 0
162 -162 0
70 -169 0
70 -170 0
169 -169 0
170 -170 0
87 -177 0
87 -178 0
177 -177 0
178 -178 0
104 -185 0
104 -186 0
185 -185 0
186 -186 0
121 -193 0
121 -194 0
193 -193 0
194 -194 0
-3 -137 0
-3 -138 0
137 -137 0
138 -138 0
-20 -145 0
-20 -146 0
145 -145 0
146 -146 0
-37 -153 0
-37 -154 0
153 -153 0
154 -154 0
-54 -161 0
-54 -162 0
161 -161 0
162 -162 0
-71 -169 0
-71 -170 0
169 -169 0
170 -170 0
-88 -177 0
-88 -178 0
177 -177 0
178 -178 0
-105 -185 0
-105 -186 0
185 -185 0
186 -186 0
-122 -193 0
-122 -194 0
193 -193 0
194 -194 0
4 -137 0
4 -138 0
137 -137 0
138 -138 0
21 -145 0
21 -146 0
145 -145 0
146 -146 0
38 -153 0
38 -154 0
153 -153 0
154 -154 0
55 -161 0
55 -162 0
161 -161 0
162 -162 0
72 -169 0
72 -170 0
169 -169 0
170 -170 0
89 -177 0
89 -178 0
177 -177 0
178 -178 0
106 -185 0
106 -186 0
185 -185 0
186 -186 0
123 -193 0
123 -194 0
193 -193 0
194 -194 0
5 -137 0
5 -138 0
137 -137 0
138 -138 0
22 -145 0
22 -146 0
145 -145 0
146 -146 0
39 -153 0
39 -154 0
153 -153 0
154 -154 0
56 -161 0
56 -162 0
161 -161 0
162 -162 0
73 -169 0
73 -170 0
169 -169 0
170 -170 0
90 -177 0
90 -178 0
177 -177 0
178 -178 0
107 -185 0
107 -186 0
185 -185 0
186 -186 0
124 -193 0
124 -194 0
193 -193 0
194 -194 0
6 -137 0
6 -138 0
137 -137 0
138 -138 0
23 -145 0
23 -146 0
145 -145 0
146 -146 0
40 -153 0
40 -154 0
153 -153 0
154 -154 0
57 -161 0
57 -162 0
161 -161 0
162 -162 0
74 -169 0
74 -170 0
169 -169 0
170 -170 0
91 -177 0
91 -178 0
177 -177 0
178 -178 0
108 -185 0
108 -186 0
185 -185 0
186 -186 0
125 -193 0
125 -194 0
193 -193 0
194 -194 0
7 -137 0
7 -138 0
137 -137 0
138 -138 0
24 -145 0
24 -146 0
145 -145 0
146 -146 0
41 -153 0
41 -154 0
153 -153 0
154 -154 0
58 -161 0
58 -162 0
161 -161 0
162 -162 0
75 -169 0
75 -170 0
169 -169 0
170 -170 0
92 -177 0
92 -178 0
177 -177 0
178 -178 0
109 -185 0
109 -186 0
185 -185 0
186 -186 0
126 -193 0
126 -194 0
193 -193 0
194 -194 0
8 -137 0
8 -138 0
137 -137 0
138 -138 0
25 -145 0
25 -146 0
145 -145 0
146 -146 0
42 -153 0
42 -154 0
153 -153 0
154 -154 0
59 -161 0
59 -162 0
161 -161 0
162 -162 0
76 -169 0
76 -170 0
169 -169 0
170 -170 0
93 -177 0
93 -178 0
177 -177 0
178 -178 0
110 -185 0
110 -186 0
185 -185 0
186 -186 0
127 -193 0
127 -194 0
193 -193 0
194 -194 0
9 -201 -137 0
-9 201 -137 0
9 201 -138 0
-9 -201 -138 0
26 -201 -145 0
-26 201 -145 0
26 201 -146 0
-26 -201 -146 0
43 -201 -153 0
-43 201 -153 0
43 201 -154 0
-43 -201 -154 0
60 -201 -161 0
-60 201 -161 0
60 201 -162 0
-60 -201 -162 0
77 -201 -169 0
-77 201 -169 0
77 201 -170 0
-77 -201 -170 0
94 -201 -177 0
-94 201 -177 0
94 201 -178 0
-94 -201 -178 0
111 -201 -185 0
-111 201 -185 0
111 201 -186 0
-111 -201 -186 0
128 -201 -193 0
-128 201 -193 0
128 201 -194 0
-128 -201 -194 0
-10 -137 0
-10 -138 0
137 -137 0
138 -138 0
-27 -145 0
-27 -146 0
145 -145 0
146 -146 0
-44 -153 0
-44 -154 0
153 -153 0
154 -154 0
-61 -161 0
-61 -162 0
161 -161 0
162 -162 0
-78 -169 0
-78 -170 0
169 -169 0
170 -170 0
-95 -177 0
-95 -178 0
177 -177 0
178 -178 0
-112 -185 0
-112 -186 0
185 -185 0
186 -186 0
-129 -193 0
-129 -194 0
193 -193 0
194 -194 0
11 -202 -137 0
-11 202 -137 0
11 202 -138 0
-11 -202 -138 0
28 -202 -145 0
-28 202 -145 0
28 202 -146 0
-28 -202 -146 0
45 -202 -153 0
-45 202 -153 0
45 202 -154 0
-45 -202 -154 0
62 -202 -161 0
-62 202 -161 0
62 202 -162 0
-62 -202 -162 0
79 -202 -169 0
-79 202 -169 0
79 202 -170 0
-79 -202 -170 0
96 -202 -177 0
-96 202 -177 0
96 202 -178 0
-96 -202 -178 0
113 -202 -185 0
-113 202 -185 0
113 202 -186 0
-113 -202 -186 0
130 -202 -193 0
-130 202 -193 0
130 202 -194 0
-130 -202 -194 0
12 -203 -137 0
-12 203 -137 0
12 203 -138 0
-12 -203 -138 0
29 -203 -145 0
-29 203 -145 0
29 203 -146 0
-29 -203 -146 0
46 -203 -153 0
-46 203 -153 0
46 203 -154 0
-46 -203 -154 0
63 -203 -161 0
-63 203 -161 0
63 203 -162 0
-63 -203 -162 0
80 -203 -169 0
-80 203 -169 0
80 203 -170 0
-80 -203 -170 0
97 -203 -177 0
-97 203 -177 0
97 203 -178 0
-97 -203 -178 0
114 -203 -185 0
-114 203 -185 0
114 203 -186 0
-114 -203 -186 0
131 -203 -193 0
-131 203 -193 0
131 203 -194 0
-131 -203 -194 0
13 -137 0
13 -138 0
137 -137 0
138 -138 0
30 -145 0
30 -146 0
145 -145 0
146 -146 0
47 -153 0
47 -154 0
153 -153 0
154 -154 0
64 -161 0
64 -162 0
161 -161 0
162 -162 0
81 -169 0
81 -170 0
169 -169 0
170 -170 0
98 -177 0
98 -178 0
177 -177 0
178 -178 0
115 -185 0
115 -186 0
185 -185 0
186 -186 0
132 -193 0
132 -194 0
193 -193 0
194 -194 0
14 -204 -137 0
-14 204 -137 0
14 204 -138 0
-14 -204 -138 0
31 -204 -145 0
-31 204 -145 0
31 204 -146 0
-31 -204 -146 0
48 -204 -153 0
-48 204 -153 0
48 204 -154 0
-48 -204 -154 0
65 -204 -161 0
-65 204 -161 0
65 204 -162 0
-65 -204 -162 0
82 -204 -169 0
-82 204 -169 0
82 204 -170 0
-82 -204 -170 0
99 -204 -177 0
-99 204 -177 0
99 204 -178 0
-99 -204 -178 0
116 -204 -185 0
-116 204 -185 0
116 204 -186 0
-116 -204 -186 0
133 -204 -193 0
-133 204 -193 0
133 204 -194 0
-133 -204 -194 0
15 -205 -137 0
-15 205 -137 0
15 205 -138 0
-15 -205 -138 0
32 -205 -145 0
-32 205 -145 0
32 205 -146 0
-32 -205 -146 0
49 -205 -153 0
-49 205 -153 0
49 205 -154 0
-49 -205 -154 0
66 -205 -161 0
-66 205 -161 0
66 205 -162 0
-66 -205 -162 0
83 -205 -169 0
-83 205 -169 0
83 205 -170 0
-83 -205 -170 0
100 -205 -177 0
-100 205 -177 0
100 205 -178 0
-100 -205 -178 0
117 -205 -185 0
-117 205 -185 0
117 205 -186 0
-117 -205 -186 0
134 -205 -193 0
-134 205 -193 0
134 205 -194 0
-134 -205 -194 0
16 -206 -137 0
-16 206 -137 0
16 206 -138 0
-16 -206 -138 0
33 -206 -145 0
-33 206 -145 0
33 206 -146 0
-33 -206 -146 0
50 -206 -153 0
-50 206 -153 0
50 206 -154 0
-50 -206 -154 0
67 -206 -161 0
-67 206 -161 0
67 206 -162 0
-67 -206 -162 0
84 -206 -169 0
-84 206 -169 0
84 206 -170 0
-84 -206 -170 0
101 -206 -177 0
-101 206 -177 0
101 206 -178 0
-101 -206 -178 0
118 -206 -185 0
-118 206 -185 0
118 206 -186 0
-118 -206 -186 0
135 -206 -193 0
-135 206 -193 0
135 206 -194 0
-135 -206 -194 0
17 -137 0
17 -138 0
137 -137 0
138 -138 0
34 -145 0
34 -146 0
145 -145 0
146 -146 0
51 -153 0
51 -154 0
153 -153 0
154 -154 0
68 -161 0
68 -162 0
161 -161 0
162 -162 0
85 -169 0
85 -170 0
169 -169 0
170 -170 0
102 -177 0
102 -178 0
177 -177 0
178 -178 0
119 -185 0
119 -186 0
185 -185 0
186 -186 0
136 -193 0
136 -194 0
193 -193 0
194 -194 0
-269 137 0
269 -137 0
-270 138 0
269 -138 0
-269 -137 0
-270 -138 0
-277 137 269 0
277 -137 0
277 -269 0
-278 138 270 0
278 -138 0
278 -270 0
-277 -145 0
-278 -146 0
-285 145 277 0
285 -145 0
285 -277 0
-286 146 278 0
286 -146 0
286 -278 0
-285 -153 0
-286 -154 0
-293 153 285 0
293 -153 0
293 -285 0
-294 154 286 0
294 -154 0
294 -286 0
-293 -161 0
-294 -162 0
-301 161 293 0
301 -161 0
301 -293 0
-302 162 294 0
302 -162 0
302 -294 0
-301 -169 0
-302 -170 0
-309 169 301 0
309 -169 0
309 -301 0
-310 170 302 0
310 -170 0
310 -302 0
-309 -177 0
-310 -178 0
-317 177 309 0
317 -177 0
317 -309 0
-318 178 310 0
318 -178 0
318 -310 0
-317 -185 0
-318 -186 0
-325 185 317 0
325 -185 0
325 -317 0
-326 186 318 0
326 -186 0
326 -318 0
-325 -193 0
-326 -194 0
325 0
326 0
1 -139 0
1 -140 0
139 -139 0
140 -140 0
18 -147 0
18 -148 0
147 -147 0
148 -148 0
35 -155 0
35 -156 0
155 -155 0
156 -156 0
52 -163 0
52 -164 0
163 -163 0
164 -164 0
69 -171 0
69 -172 0
171 -171 0
172 -172 0
86 -179 0
86 -180 0
179 -179 0
180 -180 0
103 -187 0
103 -188 0
187 -187 0
188 -188 0
120 -195 0
120 -196 0
195 -195 0
196 -196 0
2 -139 0
2 -140 0
139 -139 0
140 -140 0
19 -147 0
19 -148 0
147 -147 0
148 -148 0
36 -155 0
36 -156 0
155 -155 0
156 -156 0
53 -163 0
53 -164 0
163 -163 0
164 -164 0
70 -171 0
70 -172 0
171 -171 0
172 -172 0
87 -179 0
87 -180 0
179 -179 0
180 -180 0
104 -187 0
104 -188 0
187 -187 0
188 -188 0
121 -195 0
121 -196 0
195 -195 0
196 -196 0
3 -139 0
3 -140 0
139 -139 0
140 -140 0
20 -147 0
20 -148 0
147 -147 0
148 -148 0
37 -155 0
37 -156 0
155 -155 0
156 -156 0
54 -163 0
54 -164 0
163 -163 0
164 -164 0
71 -171 0
71 -172 0
171 -171 0
172 -172 0
88 -179 0
88 -180 0
179 -179 0
180 -180 0
105 -187 0
105 -188 0
187 -187 0
188 -188 0
122 -195 0
122 -196 0
195 -195 0
196 -196 0
4 -139 0
4 -140 0
139 -139 0
140 -140 0
21 -147 0
21 -148 0
147 -147 0
148 -148 0
38 -155 0
38 -156 0
155 -155 0
156 -156 0
55 -163 0
55 -164 0
163 -163 0
164 -164 0
72 -171 0
72 -172 0
171 -171 0
172 -172 0
89 -179 0
89 -180 0
179 -179 0
180 -180 0
106 -187 0
106 -188 0
187 -187 0
188 -188 0
123 -195 0
123 -196 0
195 -195 0
196 -196 0
5 -207 -139 0
-5 207 -139 0
5 207 -140 0
-5 -207 -140 0
22 -207 -147 0
-22 207 -147 0
22 207 -148 0
-22 -207 -148 0
39 -207 -155 0
-39 207 -155 0
39 207 -156 0
-39 -207 -156 0
56 -207 -163 0
-56 207 -163 0
56 207 -164 0
-56 -207 -164 0
73 -207 -171 0
-73 207 -171 0
73 207 -172 0
-73 -207 -172 0
90 -207 -179 0
-90 207 -179 0
90 207 -180 0
-90 -207 -180 0
107 -207 -187 0
-107 207 -187 0
107 207 -188 0
-107 -207 -188 0
124 -207 -195 0
-124 207 -195 0
124 207 -196 0
-124 -207 -196 0
6 -139 0
6 -140 0
139 -139 0
140 -140 0
23 -147 0
23 -148 0
147 -147 0
148 -148 0
40 -155 0
40 -156 0
155 -155 0
156 -156 0
57 -163 0
57 -164 0
163 -163 0
164 -164 0
74 -171 0
74 -172 0
171 -171 0
172 -172 0
91 -179 0
91 -180 0
179 -179 0
180 -180 0
108 -187 0
108 -188 0
187 -187 0
188 -188 0
125 -195 0
125 -196 0
195 -195 0
196 -196 0
7 -208 -139 0
-7 208 -139 0
7 208 -140 0
-7 -208 -140 0
24 -208 -147 0
-24 208 -147 0
24 208 -148 0
-24 -208 -148 0
41 -208 -155 0
-41 208 -155 0
41 208 -156 0
-41 -208 -156 0
58 -208 -163 0
-58 208 -163 0
58 208 -164 0
-58 -208 -164 0
75 -208 -171 0
-75 208 -171 0
75 208 -172 0
-75 -208 -172 0
92 -208 -179 0
-92 208 -179 0
92 208 -180 0
-92 -208 -180 0
109 -208 -187 0
-109 208 -187 0
109 208 -188 0
-109 -208 -188 0
126 -208 -195 0
-126 208 -195 0
126 208 -196 0
-126 -208 -196 0
8 -209 -139 0
-8 209 -139 0
8 209 -140 0
-8 -209 -140 0
25 -209 -147 0
-25 209 -147 0
25 209 -148 0
-25 -209 -148 0
42 -209 -155 0
-42 209 -155 0
42 209 -156 0
-42 -209 -156 0
59 -209 -163 0
-59 209 -163 0
59 209 -164 0
-59 -209 -164 0
76 -209 -171 0
-76 209 -171 0
76 209 -172 0
-76 -209 -172 0
93 -209 -179 0
-93 209 -179 0
93 209 -180 0
-93 -209 -180 0
110 -209 -187 0
-110 209 -187 0
110 209 -188 0
-110 -209 -188 0
127 -209 -195 0
-127 209 -195 0
127 209 -196 0
-127 -209 -196 0
9 -210 -139 0
-9 210 -139 0
9 210 -140 0
-9 -210 -140 0
26 -210 -147 0
-26 210 -147 0
26 210 -148 0
-26 -210 -148 0
43 -210 -155 0
-43 210 -155 0
43 210 -156 0
-43 -210 -156 0
60 -210 -163 0
-60 210 -163 0
60 210 -164 0
-60 -210 -164 0
77 -210 -171 0
-77 210 -171 0
77 210 -172 0
-77 -210 -172 0
94 -210 -179 0
-94 210 -179 0
94 210 -180 0
-94 -210 -180 0
111 -210 -187 0
-111 210 -187 0
111 210 -188 0
-111 -210 -188 0
128 -210 -195 0
-128 210 -195 0
128 210 -196 0
-128 -210 -196 0
10 -211 -139 0
-10 211 -139 0
10 211 -140 0
-10 -211 -140 0
27 -211 -147 0
-27 211 -147 0
27 211 -148 0
-27 -211 -148 0
44 -211 -155 0
-44 211 -155 0
44 211 -156 0
-44 -211 -156 0
61 -211 -163 0
-61 211 -163 0
61 211 -164 0
-61 -211 -164 0
78 -211 -171 0
-78 211 -171 0
78 211 -172 0
-78 -211 -172 0
95 -211 -179 0
-95 211 -179 0
95 211 -180 0
-95 -211 -180 0
112 -211 -187 0
-112 211 -187 0
112 211 -188 0
-112 -211 -188 0
129 -211 -195 0
-129 211 -195 0
129 211 -196 0
-129 -211 -196 0
-11 -139 0
-11 -140 0
139 -139 0
140 -140 0
-28 -147 0
-28 -148 0
147 -147 0
148 -148 0
-45 -155 0
-45 -156 0
155 -155 0
156 -156 0
-62 -163 0
-62 -164 0
163 -163 0
164 -164 0
-79 -171 0
-79 -172 0
171 -171 0
172 -172 0
-96 -179 0
-96 -180 0
179 -179 0
180 -180 0
-113 -187 0
-113 -188 0
187 -187 0
188 -188 0
-130 -195 0
-130 -196 0
195 -195 0
196 -196 0
12 -212 -139 0
-12 212 -139 0
12 212 -140 0
-12 -212 -140 0
29 -212 -147 0
-29 212 -147 0
29 212 -148 0
-29 -212 -148 0
46 -212 -155 0
-46 212 -155 0
46 212 -156 0
-46 -212 -156 0
63 -212 -163 0
-63 212 -163 0
63 212 -164 0
-63 -212 -164 0
80 -212 -171 0
-80 212 -171 0
80 212 -172 0
-80 -212 -172 0
97 -212 -179 0
-97 212 -179 0
97 212 -180 0
-97 -212 -180 0
114 -212 -187 0
-114 212 -187 0
114 212 -188 0
-114 -212 -188 0
131 -212 -195 0
-131 212 -195 0
131 212 -196 0
-131 -212 -196 0
13 -139 0
13 -140 0
139 -139 0
140 -140 0
30 -147 0
30 -148 0
147 -147 0
148 -148 0
47 -155 0
47 -156 0
155 -155 0
156 -156 0
64 -163 0
64 -164 0
163 -163 0
164 -164 0
81 -171 0
81 -172 0
171 -171 0
172 -172 0
98 -179 0
98 -180 0
179 -179 0
180 -180 0
115 -187 0
115 -188 0
187 -187 0
188 -188 0
132 -195 0
132 -196 0
195 -195 0
196 -196 0
14 -213 -139 0
-14 213 -139 0
14 213 -140 0
-14 -213 -140 0
31 -213 -147 0
-31 213 -147 0
31 213 -148 0
-31 -213 -148 0
48 -213 -155 0
-48 213 -155 0
48 213 -156 0
-48 -213 -156 0
65 -213 -163 0
-65 213 -163 0
65 213 -164 0
-65 -213 -164 0
82 -213 -171 0
-82 213 -171 0
82 213 -172 0
-82 -213 -172 0
99 -213 -179 0
-99 213 -179 0
99 213 -180 0
-99 -213 -180 0
116 -213 -187 0
-116 213 -187 0
116 213 -188 0
-116 -213 -188 0
133 -213 -195 0
-133 213 -195 0
133 213 -196 0
-133 -213 -196 0
15 -139 0
15 -140 0
139 -139 0
140 -140 0
32 -147 0
32 -148 0
147 -147 0
148 -148 0
49 -155 0
49 -156 0
155 -155 0
156 -156 0
66 -163 0
66 -164 0
163 -163 0
164 -164 0
83 -171 0
83 -172 0
171 -171 0
172 -172 0
100 -179 0
100 -180 0
179 -179 0
180 -180 0
117 -187 0
117 -188 0
187 -187 0
188 -188 0
134 -195 0
134 -196 0
195 -195 0
196 -196 0
16 -139 0
16 -140 0
139 -139 0
140 -140 0
33 -147 0
33 -148 0
147 -147 0
148 -148 0
50 -155 0
50 -156 0
155 -155 0
156 -156 0
67 -163 0
67 -164 0
163 -163 0
164 -164 0
84 -171 0
84 -172 0
171 -171 0
172 -172 0
101 -179 0
101 -180 0
179 -179 0
180 -180 0
118 -187 0
118 -188 0
187 -187 0
188 -188 0
135 -195 0
135 -196 0
195 -195 0
196 -196 0
17 -139 0
17 -140 0
139 -139 0
140 -140 0
34 -147 0
34 -148 0
147 -147 0
148 -148 0
51 -155 0
51 -156 0
155 -155 0
156 -156 0
68 -163 0
68 -164 0
163 -163 0
164 -164 0
85 -171 0
85 -172 0
171 -171 0
172 -172 0
102 -179 0
102 -180 0
179 -179 0
180 -180 0
119 -187 0
119 -188 0
187 -187 0
188 -188 0
136 -195 0
136 -196 0
195 -195 0
196 -196 0
-271 139 0
271 -139 0
-272 140 0
271 -140 0
-271 -139 0
-272 -140 0
-279 139 271 0
279 -139 0
279 -271 0
-280 140 272 0
280 -140 0
280 -272 0
-279 -147 0
-280 -148 0
-287 147 279 0
287 -147 0
287 -279 0
-288 148 280 0
288 -148 0
288 -280 0
-287 -155 0
-288 -156 0
-295 155 287 0
295 -155 0
295 -287 0
-296 156 288 0
296 -156 0
296 -288 0
-295 -163 0
-296 -164 0
-303 163 295 0
303 -163 0
303 -295 0
-304 164 296 0
304 -164 0
304 -296 0
-303 -171 0
-304 -172 0
-311 171 303 0
311 -171 0
311 -303 0
-312 172 304 0
312 -172 0
312 -304 0
-311 -179 0
-312 -180 0
-319 179 311 0
319 -179 0
319 -311 0
-320 180 312 0
320 -180 0
320 -312 0
-319 -187 0
-320 -188 0
-327 187 319 0
327 -187 0
327 -319 0
-328 188 320 0
328 -188 0
328 -320 0
-327 -195 0
-328 -196 0
327 0
328 0
1 -214 -141 0
-1 214 -141 0
1 214 -142 0
-1 -214 -142 0
18 -214 -149 0
-18 214 -149 0
18 214 -150 0
-18 -214 -150 0
35 -214 -157 0
-35 214 -157 0
35 214 -158 0
-35 -214 -158 0
52 -214 -165 0
-52 214 -165 0
52 214 -166 0
-52 -214 -166 0
69 -214 -173 0
-69 214 -173 0
69 214 -174 0
-69 -214 -174 0
86 -214 -181 0
-86 214 -181 0
86 214 -182 0
-86 -214 -182 0
103 -214 -189 0
-103 214 -189 0
103 214 -190 0
-103 -214 -190 0
120 -214 -197 0
-120 214 -197 0
120 214 -198 0
-120 -214 -198 0
2 -141 0
2 -142 0
141 -141 0
142 -142 0
19 -149 0
19 -150 0
149 -149 0
150 -150 0
36 -157 0
36 -158 0
157 -157 0
158 -158 0
53 -165 0
53 -166 0
165 -165 0
166 -166 0
70 -173 0
70 -174 0
173 -173 0
174 -174 0
87 -181 0
87 -182 0
181 -181 0
182 -182 0
104 -189 0
104 -190 0
189 -189 0
190 -190 0
121 -197 0
121 -198 0
197 -197 0
198 -198 0
3 -215 -141 0
-3 215 -141 0
3 215 -142 0
-3 -215 -142 0
20 -215 -149 0
-20 215 -149 0
20 215 -150 0
-20 -215 -150 0
37 -215 -157 0
-37 215 -157 0
37 215 -158 0
-37 -215 -158 0
54 -215 -165 0
-54 215 -165 0
54 215 -166 0
-54 -215 -166 0
71 -215 -173 0
-71 215 -173 0
71 215 -174 0
-71 -215 -174 0
88 -215 -181 0
-88 215 -181 0
88 215 -182 0
-88 -215 -182 0
105 -215 -189 0
-105 215 -189 0
105 215 -190 0
-105 -215 -190 0
122 -215 -197 0
-122 215 -197 0
122 215 -198 0
-122 -215 -198 0
4 -216 -141 0
-4 216 -141 0
4 216 -142 0
-4 -216 -142 0
21 -216 -149 0
-21 216 -149 0
21 216 -150 0
-21 -216 -150 0
38 -216 -157 0
-38 216 -157 0
38 216 -158 0
-38 -216 -158 0
55 -216 -165 0
-55 216 -165 0
55 216 -166 0
-55 -216 -166 0
72 -216 -173 0
-72 216 -173 0
72 216 -174 0
-72 -216 -174 0
89 -216 -181 0
-89 216 -181 0
89 216 -182 0
-89 -216 -182 0
106 -216 -189 0
-106 216 -189 0
106 216 -190 0
-106 -216 -190 0
123 -216 -197 0
-123 216 -197 0
123 216 -198 0
-123 -216 -198 0
5 -141 0
5 -142 0
141 -141 0
142 -142 0
22 -149 0
22 -150 0
149 -149 0
150 -150 0
39 -157 0
39 -158 0
157 -157 0
158 -158 0
56 -165 0
56 -166 0
165 -165 0
166 -166 0
73 -173 0
73 -174 0
173 -173 0
174 -174 0
90 -181 0
90 -182 0
181 -181 0
182 -182 0
107 -189 0
107 -190 0
189 -189 0
190 -190 0
124 -197 0
124 -198 0
197 -197 0
198 -198 0
6 -141 0
6 -142 0
141 -141 0
142 -142 0
23 -149 0
23 -150 0
149 -149 0
150 -150 0
40 -157 0
40 -158 0
157 -157 0
158 -158 0
57 -165 0
57 -166 0
165 -165 0
166 -166 0
74 -173 0
74 -174 0
173 -173 0
174 -174 0
91 -181 0
91 -182 0
181 -181 0
182 -182 0
108 -189 0
108 -190 0
189 -189 0
190 -190 0
125 -197 0
125 -198 0
197 -197 0
198 -198 0
7 -141 0
7 -142 0
141 -141 0
142 -142 0
24 -149 0
24 -150 0
149 -149 0
150 -150 0
41 -157 0
41 -158 0
157 -157 0
158 -158 0
58 -165 0
58 -166 0
165 -165 0
166 -166 0
75 -173 0
75 -174 0
173 -173 0
174 -174 0
92 -181 0
92 -182 0
181 -181 0
182 -182 0
109 -189 0
109 -190 0
189 -189 0
190 -190 0
126 -197 0
126 -198 0
197 -197 0
198 -198 0
8 -141 0
8 -142 0
141 -141 0
142 -142 0
25 -149 0
25 -150 0
149 -149 0
150 -150 0
42 -157 0
42 -158 0
157 -157 0
158 -158 0
59 -165 0
59 -166 0
165 -165 0
166 -166 0
76 -173 0
76 -174 0
173 -173 0
174 -174 0
93 -181 0
93 -182 0
181 -181 0
182 -182 0
110 -189 0
110 -190 0
189 -189 0
190 -190 0
127 -197 0
127 -198 0
197 -197 0
198 -198 0
9 -141 0
9 -142 0
141 -141 0
142 -142 0
26 -149 0
26 -150 0
149 -149 0
150 -150 0
43 -157 0
43 -158 0
157 -157 0
158 -158 0
60 -165 0
60 -166 0
165 -165 0
166 -166 0
77 -173 0
77 -174 0
173 -173 0
174 -174 0
94 -181 0
94 -182 0
181 -181 0
182 -182 0
111 -189 0
111 -190 0
189 -189 0
190 -190 0
128 -197 0
128 -198 0
197 -197 0
198 -198 0
-10 -141 0
-10 -142 0
141 -141 0
142 -142 0
-27 -149 0
-27 -150 0
149 -149 0
150 -150 0
-44 -157 0
-44 -158 0
157 -157 0
158 -158 0
-61 -165 0
-61 -166 0
165 -165 0
166 -166 0
-78 -173 0
-78 -174 0
173 -173 0
174 -174 0
-95 -181 0
-95 -182 0
181 -181 0
182 -182 0
-112 -189 0
-112 -190 0
189 -189 0
190 -190 0
-129 -197 0
-129 -198 0
197 -197 0
198 -198 0
11 -141 0
11 -142 0
141 -141 0
142 -142 0
28 -149 0
28 -150 0
149 -149 0
150 -150 0
45 -157 0
45 -158 0
157 -157 0
158 -158 0
62 -165 0
62 -166 0
165 -165 0
166 -166 0
79 -173 0
79 -174 0
173 -173 0
174 -174 0
96 -181 0
96 -182 0
181 -181 0
182 -182 0
113 -189 0
113 -190 0
189 -189 0
190 -190 0
130 -197 0
130 -198 0
197 -197 0
198 -198 0
12 -141 0
12 -142 0
141 -141 0
142 -142 0
29 -149 0
29 -150 0
149 -149 0
150 -150 0
46 -157 0
46 -158 0
157 -157 0
158 -158 0
63 -165 0
63 -166 0
165 -165 0
166 -166 0
80 -173 0
80 -174 0
173 -173 0
174 -174 0
97 -181 0
97 -182 0
181 -181 0
182 -182 0
114 -189 0
114 -190 0
189 -189 0
190 -190 0
131 -197 0
131 -198 0
197 -197 0
198 -198 0
13 -141 0
13 -142 0
141 -141 0
142 -142 0
30 -149 0
30 -150 0
149 -149 0
150 -150 0
47 -157 0
47 -158 0
157 -157 0
158 -158 0
64 -165 0
64 -166 0
165 -165 0
166 -166 0
81 -173 0
81 -174 0
173 -173 0
174 -174 0
98 -181 0
98 -182 0
181 -181 0
182 -182 0
115 -189 0
115 -190 0
189 -189 0
190 -190 0
132 -197 0
132 -198 0
197 -197 0
198 -198 0
-14 -141 0
-14 -142 0
141 -141 0
142 -142 0
-31 -149 0
-31 -150 0
149 -149 0
150 -150 0
-48 -157 0
-48 -158 0
157 -157 0
158 -158 0
-65 -165 0
-65 -166 0
165 -165 0
166 -166 0
-82 -173 0
-82 -174 0
173 -173 0
174 -174 0
-99 -181 0
-99 -182 0
181 -181 0
182 -182 0
-116 -189 0
-116 -190 0
189 -189 0
190 -190 0
-133 -197 0
-133 -198 0
197 -197 0
198 -198 0
-15 -141 0
-15 -142 0
141 -141 0
142 -142 0
-32 -149 0
-32 -150 0
149 -149 0
150 -150 0
-49 -157 0
-49 -158 0
157 -157 0
158 -158 0
-66 -165 0
-66 -166 0
165 -165 0
166 -166 0
-83 -173 0
-83 -174 0
173 -173 0
174 -174 0
-100 -181 0
-100 -182 0
181 -181 0
182 -182 0
-117 -189 0
-117 -190 0
189 -189 0
190 -190 0
-134 -197 0
-134 -198 0
197 -197 0
198 -198 0
-16 -141 0
-16 -142 0
141 -141 0
142 -142 0
-33 -149 0
-33 -150 0
149 -149 0
150 -150 0
-50 -157 0
-50 -158 0
157 -157 0
158 -158 0
-67 -165 0
-67 -166 0
165 -165 0
166 -166 0
-84 -173 0
-84 -174 0
173 -173 0
174 -174 0
-101 -181 0
-101 -182 0
181 -181 0
182 -182 0
-118 -189 0
-118 -190 0
189 -189 0
190 -190 0
-135 -197 0
-135 -198 0
197 -197 0
198 -198 0
17 -141 0
17 -142 0
141 -141 0
142 -142 0
34 -149 0
34 -150 0
149 -149 0
150 -150 0
51 -157 0
51 -158 0
157 -157 0
158 -158 0
68 -165 0
68 -166 0
165 -165 0
166 -166 0
85 -173 0
85 -174 0
173 -173 0
174 -174 0
102 -181 0
102 -182 0
181 -181 0
182 -182 0
119 -189 0
119 -190 0
189 -189 0
190 -190 0
136 -197 0
136 -198 0
197 -197 0
198 -198 0
-273 141 0
273 -141 0
-274 142 0
273 -142 0
-273 -141 0
-274 -142 0
-281 141 273 0
281 -141 0
281 -273 0
-282 142 274 0
282 -142 0
282 -274 0
-281 -149 0
-282 -150 0
-289 149 281 0
289 -149 0
289 -281 0
-290 150 282 0
290 -150 0
290 -282 0
-289 -157 0
-290 -158 0
-297 157 289 0
297 -157 0
297 -289 0
-298 158 290 0
298 -158 0
298 -290 0
-297 -165 0
-298 -166 0
-305 165 297 0
305 -165 0
305 -297 0
-306 166 298 0
306 -166 0
306 -298 0
-305 -173 0
-306 -174 0
-313 173 305 0
313 -173 0
313 -305 0
-314 174 306 0
314 -174 0
314 -306 0
-313 -181 0
-314 -182 0
-321 181 313 0
321 -181 0
321 -313 0
-322 182 314 0
322 -182 0
322 -314 0
-321 -189 0
-322 -190 0
-329 189 321 0
329 -189 0
329 -321 0
-330 190 322 0
330 -190 0
330 -322 0
-329 -197 0
-330 -198 0
329 0
330 0
1 -217 -143 0
-1 217 -143 0
1 217 -144 0
-1 -217 -144 0
18 -217 -151 0
-18 217 -151 0
18 217 -152 0
-18 -217 -152 0
35 -217 -159 0
-35 217 -159 0
35 217 -160 0
-35 -217 -160 0
52 -217 -167 0
-52 217 -167 0
52 217 -168 0
-52 -217 -168 0
69 -217 -175 0
-69 217 -175 0
69 217 -176 0
-69 -217 -176 0
86 -217 -183 0
-86 217 -183 0
86 217 -184 0
-86 -217 -184 0
103 -217 -191 0
-103 217 -191 0
103 217 -192 0
-103 -217 -192 0
120 -217 -199 0
-120 217 -199 0
120 217 -200 0
-120 -217 -200 0
2 -143 0
2 -144 0
143 -143 0
144 -144 0
19 -151 0
19 -152 0
151 -151 0
152 -152 0
36 -159 0
36 -160 0
159 -159 0
160 -160 0
53 -167 0
53 -168 0
167 -167 0
168 -168 0
70 -175 0
70 -176 0
175 -175 0
176 -176 0
87 -183 0
87 -184 0
183 -183 0
184 -184 0
104 -191 0
104 -192 0
191 -191 0
192 -192 0
121 -199 0
121 -200 0
199 -199 0
200 -200 0
3 -143 0
3 -144 0
143 -143 0
144 -144 0
20 -151 0
20 -152 0
151 -151 0
152 -152 0
37 -159 0
37 -160 0
159 -159 0
160 -160 0
54 -167 0
54 -168 0
167 -167 0
168 -168 0
71 -175 0
71 -176 0
175 -175 0
176 -176 0
88 -183 0
88 -184 0
183 -183 0
184 -184 0
105 -191 0
105 -192 0
191 -191 0
192 -192 0
122 -199 0
122 -200 0
199 -199 0
200 -200 0
4 -218 -143 0
-4 218 -143 0
4 218 -144 0
-4 -218 -144 0
21 -218 -151 0
-21 218 -151 0
21 218 -152 0
-21 -218 -152 0
38 -218 -159 0
-38 218 -159 0
38 218 -160 0
-38 -218 -160 0
55 -218 -167 0
-55 218 -167 0
55 218 -168 0
-55 -218 -168 0
72 -218 -175 0
-72 218 -175 0
72 218 -176 0
-72 -218 -176 0
89 -218 -183 0
-89 218 -183 0
89 218 -184 0
-89 -218 -184 0
106 -218 -191 0
-106 218 -191 0
106 218 -192 0
-106 -218 -192 0
123 -218 -199 0
-123 218 -199 0
123 218 -200 0
-123 -218 -200 0
5 -219 -143 0
-5 219 -143 0
5 219 -144 0
-5 -219 -144 0
22 -219 -151 0
-22 219 -151 0
22 219 -152 0
-22 -219 -152 0
39 -219 -159 0
-39 219 -159 0
39 219 -160 0
-39 -219 -160 0
56 -219 -167 0
-56 219 -167 0
56 219 -168 0
-56 -219 -168 0
73 -219 -175 0
-73 219 -175 0
73 219 -176 0
-73 -219 -176 0
90 -219 -183 0
-90 219 -183 0
90 219 -184 0
-90 -219 -184 0
107 -219 -191 0
-107 219 -191 0
107 219 -192 0
-107 -219 -192 0
124 -219 -199 0
-124 219 -199 0
124 219 -200 0
-124 -219 -200 0
6 -143 0
6 -144 0
143 -143 0
144 -144 0
23 -151 0
23 -152 0
151 -151 0
152 -152 0
40 -159 0
40 -160 0
159 -159 0
160 -160 0
57 -167 0
57 -168 0
167 -167 0
168 -168 0
74 -175 0
74 -176 0
175 -175 0
176 -176 0
91 -183 0
91 -184 0
183 -183 0
184 -184 0
108 -191 0
108 -192 0
191 -191 0
192 -192 0
125 -199 0
125 -200 0
199 -199 0
200 -200 0
7 -220 -143 0
-7 220 -143 0
7 220 -144 0
-7 -220 -144 0
24 -220 -151 0
-24 220 -151 0
24 220 -152 0
-24 -220 -152 0
41 -220 -159 0
-41 220 -159 0
41 220 -160 0
-41 -220 -160 0
58 -220 -167 0
-58 220 -167 0
58 220 -168 0
-58 -220 -168 0
75 -220 -175 0
-75 220 -175 0
75 220 -176 0
-75 -220 -176 0
92 -220 -183 0
-92 220 -183 0
92 220 -184 0
-92 -220 -184 0
109 -220 -191 0
-109 220 -191 0
109 220 -192 0
-109 -220 -192 0
126 -220 -199 0
-126 220 -199 0
126 220 -200 0
-126 -220 -200 0
8 -221 -143 0
-8 221 -143 0
8 221 -144 0
-8 -221 -144 0
25 -221 -151 0
-25 221 -151 0
25 221 -152 0
-25 -221 -152 0
42 -221 -159 0
-42 221 -159 0
42 221 -160 0
-42 -221 -160 0
59 -221 -167 0
-59 221 -167 0
59 221 -168 0
-59 -221 -168 0
76 -221 -175 0
-76 221 -175 0
76 221 -176 0
-76 -221 -176 0
93 -221 -183 0
-93 221 -183 0
93 221 -184 0
-93 -221 -184 0
110 -221 -191 0
-110 221 -191 0
110 221 -192 0
-110 -221 -192 0
127 -221 -199 0
-127 221 -199 0
127 221 -200 0
-127 -221 -200 0
9 -143 0
9 -144 0
143 -143 0
144 -144 0
26 -151 0
26 -152 0
151 -151 0
152 -152 0
43 -159 0
43 -160 0
159 -159 0
160 -160 0
60 -167 0
60 -168 0
167 -167 0
168 -168 0
77 -175 0
77 -176 0
175 -175 0
176 -176 0
94 -183 0
94 -184 0
183 -183 0
184 -184 0
111 -191 0
111 -192 0
191 -191 0
192 -192 0
128 -199 0
128 -200 0
199 -199 0
200 -200 0
10 -222 -143 0
-10 222 -143 0
10 222 -144 0
-10 -222 -144 0
27 -222 -151 0
-27 222 -151 0
27 222 -152 0
-27 -222 -152 0
44 -222 -159 0
-44 222 -159 0
44 222 -160 0
-44 -222 -160 0
61 -222 -167 0
-61 222 -167 0
61 222 -168 0
-61 -222 -168 0
78 -222 -175 0
-78 222 -175 0
78 222 -176 0
-78 -222 -176 0
95 -222 -183 0
-95 222 -183 0
95 222 -184 0
-95 -222 -184 0
112 -222 -191 0
-112 222 -191 0
112 222 -192 0
-112 -222 -192 0
129 -222 -199 0
-129 222 -199 0
129 222 -200 0
-129 -222 -200 0
11 -223 -143 0
-11 223 -143 0
11 223 -144 0
-11 -223 -144 0
28 -223 -151 0
-28 223 -151 0
28 223 -152 0
-28 -223 -152 0
45 -223 -159 0
-45 223 -159 0
45 223 -160 0
-45 -223 -160 0
62 -223 -167 0
-62 223 -167 0
62 223 -168 0
-62 -223 -168 0
79 -223 -175 0
-79 223 -175 0
79 223 -176 0
-79 -223 -176 0
96 -223 -183 0
-96 223 -183 0
96 223 -184 0
-96 -223 -184 0
113 -223 -191 0
-113 223 -191 0
113 223 -192 0
-113 -223 -192 0
130 -223 -199 0
-130 223 -199 0
130 223 -200 0
-130 -223 -200 0
12 -143 0
12 -144 0
143 -143 0
144 -144 0
29 -151 0
29 -152 0
151 -151 0
152 -152 0
46 -159 0
46 -160 0
159 -159 0
160 -160 0
63 -167 0
63 -168 0
167 -167 0
168 -168 0
80 -175 0
80 -176 0
175 -175 0
176 -176 0
97 -183 0
97 -184 0
183 -183 0
184 -184 0
114 -191 0
114 -192 0
191 -191 0
192 -192 0
131 -199 0
131 -200 0
199 -199 0
200 -200 0
13 -143 0
13 -144 0
143 -143 0
144 -144 0
30 -151 0
30 -152 0
151 -151 0
152 -152 0
47 -159 0
47 -160 0
159 -159 0
160 -160 0
64 -167 0
64 -168 0
167 -167 0
168 -168 0
81 -175 0
81 -176 0
175 -175 0
176 -176 0
98 -183 0
98 -184 0
183 -183 0
184 -184 0
115 -191 0
115 -192 0
191 -191 0
192 -192 0
132 -199 0
132 -200 0
199 -199 0
200 -200 0
14 -224 -143 0
-14 224 -143 0
14 224 -144 0
-14 -224 -144 0
31 -224 -151 0
-31 224 -151 0
31 224 -152 0
-31 -224 -152 0
48 -224 -159 0
-48 224 -159 0
48 224 -160 0
-48 -224 -160 0
65 -224 -167 0
-65 224 -167 0
65 224 -168 0
-65 -224 -168 0
82 -224 -175 0
-82 224 -175 0
82 224 -176 0
-82 -224 -176 0
99 -224 -183 0
-99 224 -183 0
99 224 -184 0
-99 -224 -184 0
116 -224 -191 0
-116 224 -191 0
116 224 -192 0
-116 -224 -192 0
133 -224 -199 0
-133 224 -199 0
133 224 -200 0
-133 -224 -200 0
15 -225 -143 0
-15 225 -143 0
15 225 -144 0
-15 -225 -144 0
32 -225 -151 0
-32 225 -151 0
32 225 -152 0
-32 -225 -152 0
49 -225 -159 0
-49 225 -159 0
49 225 -160 0
-49 -225 -160 0
66 -225 -167 0
-66 225 -167 0
66 225 -168 0
-66 -225 -168 0
83 -225 -175 0
-83 225 -175 0
83 225 -176 0
-83 -225 -176 0
100 -225 -183 0
-100 225 -183 0
100 225 -184 0
-100 -225 -184 0
117 -225 -191 0
-117 225 -191 0
117 225 -192 0
-117 -225 -192 0
134 -225 -199 0
-134 225 -199 0
134 225 -200 0
-134 -225 -200 0
16 -226 -143 0
-16 226 -143 0
16 226 -144 0
-16 -226 -144 0
33 -226 -151 0
-33 226 -151 0
33 226 -152 0
-33 -226 -152 0
50 -226 -159 0
-50 226 -159 0
50 226 -160 0
-50 -226 -160 0
67 -226 -167 0
-67 226 -167 0
67 226 -168 0
-67 -226 -168 0
84 -226 -175 0
-84 226 -175 0
84 226 -176 0
-84 -226 -176 0
101 -226 -183 0
-101 226 -183 0
101 226 -184 0
-101 -226 -184 0
118 -226 -191 0
-118 226 -191 0
118 226 -192 0
-118 -226 -192 0
135 -226 -199 0
-135 226 -199 0
135 226 -200 0
-135 -226 -200 0
17 -143 0
17 -144 0
143 -143 0
144 -144 0
34 -151 0
34 -152 0
151 -151 0
152 -152 0
51 -159 0
51 -160 0
159 -159 0
160 -160 0
68 -167 0
68 -168 0
167 -167 0
168 -168 0
85 -175 0
85 -176 0
175 -175 0
176 -176 0
102 -183 0
102 -184 0
183 -183 0
184 -184 0
119 -191 0
119 -192 0
191 -191 0
192 -192 0
136 -199 0
136 -200 0
199 -199 0
200 -200 0
-275 143 0
275 -143 0
-276 144 0
275 -144 0
-275 -143 0
-276 -144 0
-283 143 275 0
283 -143 0
283 -275 0
-284 144 276 0
284 -144 0
284 -276 0
-283 -151 0
-284 -152 0
-291 151 283 0
291 -151 0
291 -283 0
-292 152 284 0
292 -152 0
292 -284 0
-291 -159 0
-292 -160 0
-299 159 291 0
299 -159 0
299 -291 0
-300 160 292 0
300 -160 0
300 -292 0
-299 -167 0
-300 -168 0
-307 167 299 0
307 -167 0
307 -299 0
-308 168 300 0
308 -168 0
308 -300 0
-307 -175 0
-308 -176 0
-315 175 307 0
315 -175 0
315 -307 0
-316 176 308 0
316 -176 0
316 -308 0
-315 -183 0
-316 -184 0
-323 183 315 0
323 -183 0
323 -315 0
-324 184 316 0
324 -184 0
324 -316 0
-323 -191 0
-324 -192 0
-331 191 323 0
331 -191 0
331 -323 0
-332 192 324 0
332 -192 0
332 -324 0
-331 -199 0
-332 -200 0
331 0
332 0
